CLW05
Position Depot: Random
Horizon for Depot: Large
Position of customers: Cluster
Distribution of the demand: Medium
Width of time windows: Wide
Distribution of the service: Small

VEHICLE 
NUMBER 	 CAPACITY 
 14 	 	 137 
 
CUSTOMER
CUST NO. 	 XCOORD.  	 YCOORD. 	 DEMAND 	 READY TIME 	 DUE DATE 	 SERVICE TIME 
 0 	 	 566 	 	 202 	 	 0 	 	 0 	 	 3688 	 	 0 
  1 	 	 12 	 	 838 	 	 5 	 	 619 	 	 927 	 	 64 
  2 	 	 542 	 	 183 	 	 1 	 	 1370 	 	 1653 	 	 51 
  3 	 	 471 	 	 213 	 	 9 	 	 1745 	 	 2185 	 	 56 
  4 	 	 826 	 	 628 	 	 8 	 	 1554 	 	 1820 	 	 99 
  5 	 	 162 	 	 609 	 	 9 	 	 3160 	 	 3506 	 	 100 
  6 	 	 451 	 	 375 	 	 2 	 	 824 	 	 1051 	 	 60 
  7 	 	 66 	 	 212 	 	 95 	 	 2823 	 	 3190 	 	 64 
  8 	 	 180 	 	 182 	 	 10 	 	 -29 	 	 425 	 	 57 
  9 	 	 832 	 	 616 	 	 2 	 	 2348 	 	 2797 	 	 95 
  10 	 	 497 	 	 191 	 	 8 	 	 -46 	 	 402 	 	 56 
  11 	 	 531 	 	 120 	 	 10 	 	 3104 	 	 3485 	 	 78 
  12 	 	 309 	 	 574 	 	 10 	 	 657 	 	 930 	 	 75 
  13 	 	 465 	 	 416 	 	 10 	 	 859 	 	 1218 	 	 50 
  14 	 	 523 	 	 283 	 	 1 	 	 990 	 	 1244 	 	 90 
  15 	 	 72 	 	 651 	 	 100 	 	 430 	 	 779 	 	 80 
  16 	 	 1 	 	 801 	 	 1 	 	 1729 	 	 2077 	 	 82 
  17 	 	 809 	 	 462 	 	 55 	 	 1553 	 	 1776 	 	 64 
  18 	 	 73 	 	 849 	 	 1 	 	 2700 	 	 3148 	 	 79 
  19 	 	 820 	 	 654 	 	 2 	 	 1440 	 	 1899 	 	 59 
  20 	 	 903 	 	 747 	 	 1 	 	 2174 	 	 2625 	 	 58 
  21 	 	 459 	 	 210 	 	 58 	 	 1696 	 	 1947 	 	 75 
  22 	 	 115 	 	 607 	 	 8 	 	 2189 	 	 2576 	 	 58 
  23 	 	 502 	 	 280 	 	 9 	 	 1338 	 	 1669 	 	 57 
  24 	 	 831 	 	 637 	 	 7 	 	 2168 	 	 2388 	 	 88 
  25 	 	 496 	 	 151 	 	 74 	 	 2660 	 	 2913 	 	 90 
  26 	 	 161 	 	 612 	 	 10 	 	 1110 	 	 1570 	 	 58 
  27 	 	 221 	 	 598 	 	 5 	 	 3292 	 	 3513 	 	 75 
  28 	 	 383 	 	 139 	 	 9 	 	 3352 	 	 3635 	 	 51 
  29 	 	 32 	 	 173 	 	 8 	 	 1418 	 	 1907 	 	 63 
  30 	 	 442 	 	 451 	 	 3 	 	 -74 	 	 305 	 	 66 
  31 	 	 642 	 	 186 	 	 5 	 	 3076 	 	 3458 	 	 85 
  32 	 	 439 	 	 402 	 	 9 	 	 82 	 	 555 	 	 93 
  33 	 	 388 	 	 86 	 	 91 	 	 1415 	 	 1618 	 	 68 
  34 	 	 543 	 	 187 	 	 64 	 	 -81 	 	 151 	 	 77 
  35 	 	 803 	 	 586 	 	 61 	 	 1726 	 	 2111 	 	 77 
  36 	 	 166 	 	 627 	 	 8 	 	 427 	 	 641 	 	 89 
  37 	 	 206 	 	 628 	 	 6 	 	 389 	 	 613 	 	 52 
  38 	 	 56 	 	 794 	 	 9 	 	 929 	 	 1250 	 	 97 
  39 	 	 469 	 	 389 	 	 4 	 	 1188 	 	 1598 	 	 51 
  40 	 	 815 	 	 600 	 	 2 	 	 1167 	 	 1627 	 	 91 
  41 	 	 18 	 	 834 	 	 4 	 	 1765 	 	 2096 	 	 76 
  42 	 	 100 	 	 351 	 	 3 	 	 1084 	 	 1531 	 	 84 
  43 	 	 529 	 	 197 	 	 3 	 	 2833 	 	 3132 	 	 80 
  44 	 	 525 	 	 197 	 	 10 	 	 273 	 	 572 	 	 95 
  45 	 	 27 	 	 255 	 	 63 	 	 2005 	 	 2290 	 	 86 
  46 	 	 474 	 	 179 	 	 81 	 	 2087 	 	 2365 	 	 61 
  47 	 	 453 	 	 685 	 	 1 	 	 1855 	 	 2098 	 	 87 
  48 	 	 555 	 	 205 	 	 9 	 	 289 	 	 654 	 	 94 
  49 	 	 487 	 	 360 	 	 9 	 	 412 	 	 614 	 	 75 
  50 	 	 27 	 	 156 	 	 3 	 	 856 	 	 1073 	 	 67 
  51 	 	 414 	 	 191 	 	 7 	 	 2387 	 	 2634 	 	 91 
  52 	 	 494 	 	 274 	 	 65 	 	 1612 	 	 1932 	 	 93 
  53 	 	 841 	 	 489 	 	 6 	 	 1496 	 	 1750 	 	 52 
  54 	 	 106 	 	 673 	 	 88 	 	 322 	 	 749 	 	 65 
  55 	 	 465 	 	 204 	 	 9 	 	 203 	 	 408 	 	 58 
  56 	 	 268 	 	 336 	 	 5 	 	 0 	 	 474 	 	 50 
  57 	 	 502 	 	 135 	 	 5 	 	 -95 	 	 121 	 	 100 
  58 	 	 550 	 	 369 	 	 2 	 	 2999 	 	 3474 	 	 93 
  59 	 	 510 	 	 130 	 	 10 	 	 1169 	 	 1458 	 	 79 
  60 	 	 427 	 	 161 	 	 6 	 	 1729 	 	 1992 	 	 59 
  61 	 	 214 	 	 660 	 	 59 	 	 2089 	 	 2354 	 	 67 
  62 	 	 362 	 	 172 	 	 66 	 	 1453 	 	 1855 	 	 65 
  63 	 	 173 	 	 639 	 	 10 	 	 1619 	 	 1894 	 	 73 
  64 	 	 945 	 	 635 	 	 1 	 	 843 	 	 1279 	 	 80 
  65 	 	 119 	 	 766 	 	 4 	 	 460 	 	 791 	 	 93 
  66 	 	 271 	 	 141 	 	 4 	 	 212 	 	 465 	 	 76 
  67 	 	 865 	 	 613 	 	 96 	 	 3119 	 	 3473 	 	 82 
  68 	 	 88 	 	 538 	 	 7 	 	 1873 	 	 2182 	 	 73 
  69 	 	 44 	 	 333 	 	 6 	 	 1024 	 	 1483 	 	 57 
  70 	 	 201 	 	 619 	 	 2 	 	 1104 	 	 1485 	 	 71 
  71 	 	 511 	 	 195 	 	 9 	 	 2232 	 	 2530 	 	 65 
  72 	 	 20 	 	 844 	 	 1 	 	 3167 	 	 3638 	 	 52 
  73 	 	 870 	 	 668 	 	 10 	 	 775 	 	 1253 	 	 70 
  74 	 	 455 	 	 406 	 	 6 	 	 1550 	 	 1911 	 	 80 
  75 	 	 28 	 	 832 	 	 83 	 	 3114 	 	 3568 	 	 95 
  76 	 	 767 	 	 769 	 	 2 	 	 1515 	 	 1978 	 	 58 
  77 	 	 794 	 	 640 	 	 9 	 	 2566 	 	 2915 	 	 74 
  78 	 	 457 	 	 358 	 	 2 	 	 1399 	 	 1880 	 	 88 
  79 	 	 44 	 	 863 	 	 75 	 	 3171 	 	 3522 	 	 68 
  80 	 	 543 	 	 434 	 	 4 	 	 2139 	 	 2572 	 	 80 
  81 	 	 567 	 	 204 	 	 1 	 	 2286 	 	 2692 	 	 82 
  82 	 	 61 	 	 826 	 	 7 	 	 1020 	 	 1441 	 	 56 
  83 	 	 421 	 	 319 	 	 3 	 	 147 	 	 453 	 	 60 
  84 	 	 803 	 	 541 	 	 7 	 	 1241 	 	 1558 	 	 86 
  85 	 	 517 	 	 270 	 	 10 	 	 3282 	 	 3688 	 	 62 
  86 	 	 897 	 	 712 	 	 1 	 	 2220 	 	 2667 	 	 51 
  87 	 	 532 	 	 207 	 	 1 	 	 3432 	 	 3688 	 	 57 
  88 	 	 466 	 	 193 	 	 7 	 	 1346 	 	 1715 	 	 90 
  89 	 	 57 	 	 196 	 	 9 	 	 1063 	 	 1327 	 	 84 
  90 	 	 472 	 	 78 	 	 60 	 	 1014 	 	 1306 	 	 69 
  91 	 	 661 	 	 215 	 	 3 	 	 978 	 	 1210 	 	 76 
  92 	 	 43 	 	 863 	 	 96 	 	 2212 	 	 2674 	 	 53 
  93 	 	 109 	 	 291 	 	 9 	 	 604 	 	 1073 	 	 53 
  94 	 	 910 	 	 678 	 	 58 	 	 505 	 	 728 	 	 88 
  95 	 	 497 	 	 265 	 	 7 	 	 2149 	 	 2580 	 	 63 
  96 	 	 546 	 	 219 	 	 4 	 	 403 	 	 859 	 	 62 
  97 	 	 470 	 	 232 	 	 10 	 	 715 	 	 1062 	 	 86 
  98 	 	 160 	 	 608 	 	 8 	 	 877 	 	 1229 	 	 62 
  99 	 	 650 	 	 645 	 	 3 	 	 1928 	 	 2204 	 	 58 
  100 	 	 820 	 	 584 	 	 7 	 	 1924 	 	 2296 	 	 74 
 